objective value:                                  -21
t_n_0                                               1 	(obj:-1)
t_n_163                                             1 	(obj:-1)
t_n_316                                             1 	(obj:-1)
t_n_344                                             1 	(obj:-1)
t_n_369                                             1 	(obj:-1)
t_n_521                                             1 	(obj:-1)
t_n_562                                             1 	(obj:-1)
t_n_573                                             1 	(obj:-1)
t_n_603                                             1 	(obj:-1)
t_n_614                                             1 	(obj:-1)
t_n_630                                             1 	(obj:-1)
t_n_633                                             1 	(obj:-1)
t_n_648                                             1 	(obj:-1)
t_n_690                                             1 	(obj:-1)
t_n_723                                             1 	(obj:-1)
t_n_776                                             1 	(obj:-1)
t_n_787                                             1 	(obj:-1)
t_n_911                                             1 	(obj:-1)
t_n_917                                             1 	(obj:-1)
t_n_933                                             1 	(obj:-1)
t_n_980                                             1 	(obj:-1)
